50
29 151
8 157
25 120
6 139
32 160
12 55
23 193
11 164
28 186
33 41
43 141
30 162
15 157
39 177
29 180
3 52
15 80
25 170
43 151
7 162
30 88
37 76
18 32
2 34
42 97
41 58
38 145
50 134
39 64
25 199
4 128
16 136
45 62
14 151
9 92
3 113
41 132
12 54
27 36
43 162
27 69
27 111
7 81
27 173
27 100
39 79
33 173
4 55
32 68
20 125
2000
